1239738
35,42,97,58,82,61,16,87,86,4,66,95,29,79,40,78,51,19,59,90,24,52,43,17,26,94,12,25,73,39,7,45,33,57,47,9,20,21,96,30,77,10,41,6,55,53,85,89,8,91,44,99,36,15,83,50,88,76,38,13,72,93,49,18,75,69,56,60,62,31,63,68,80,48,1,37,70,32,74,81,14,22,92,84,65,54,98,34,71,28,46,11,23,67,27,2,64,5,3